# Instance RC202 - 90 dynamic requests - 10 static requests
Dyn   Stat
90    10
ID    RD
1     -1
2     -1
5     -1
7     -1
12    -1
21    -1
26    -1
33    -1
35    -1
54    -1
3     62
4     135
6     260
8     55
9     63
10    66
11    152
13    647
14    28
15    156
16    52
17    318
18    138
19    35
20    72
22    68
23    24
24    518
25    780
27    114
28    63
29    145
30    149
31    35
32    538
34    72
36    21
37    49
38    204
39    12
40    88
41    298
42    4
43    502
44    114
45    25
46    169
47    91
48    106
49    294
50    117
51    177
52    119
53    178
55    28
56    327
57    78
58    765
59    9
60    249
61    42
62    139
63    36
64    79
65    7
66    328
67    37
68    213
69    9
70    297
71    150
72    104
73    29
74    414
75    46
76    206
77    212
78    188
79    248
80    351
81    134
82    47
83    11
84    210
85    88
86    320
87    202
88    166
89    380
90    305
91    61
92    11
93    461
94    61
95    9
96    114
97    159
98    98
99    120
100   461
